p edge 30 101 20
v 3 5 11 22
v 1 29
v 1 12
v 1 16
v 1 25
v 1 17
v 1 18
v 1 30
v 2 21 27
v 2 6 10
v 1 4
v 2 15 23
v 1 20
v 1 3
v 3 1 2 13
v 2 24 28
v 1 26
v 2 8 19
v 2 7 14
v 1 9
e 1 2
e 1 8
e 1 13
e 1 14
e 1 15
e 1 17
e 1 23
e 1 25
e 1 28
e 1 29
e 2 5
e 2 8
e 2 9
e 2 17
e 2 20
e 3 12
e 3 22
e 3 23
e 3 25
e 4 12
e 4 14
e 4 17
e 4 19
e 4 23
e 4 24
e 5 11
e 5 12
e 5 21
e 5 22
e 5 30
e 6 18
e 6 20
e 6 22
e 6 27
e 7 10
e 7 18
e 7 22
e 7 24
e 8 10
e 8 11
e 8 13
e 8 26
e 8 29
e 9 10
e 9 11
e 9 17
e 9 27
e 10 12
e 10 16
e 10 17
e 10 18
e 10 23
e 10 24
e 10 28
e 10 30
e 11 14
e 11 16
e 11 27
e 11 28
e 12 13
e 12 14
e 12 16
e 12 18
e 12 24
e 12 28
e 12 29
e 13 14
e 13 24
e 13 28
e 14 18
e 14 24
e 14 27
e 15 16
e 15 18
e 15 21
e 15 25
e 15 28
e 15 29
e 16 17
e 16 22
e 16 23
e 16 24
e 17 18
e 17 22
e 17 24
e 17 26
e 18 22
e 18 28
e 19 21
e 20 25
e 20 26
e 20 29
e 20 30
e 21 26
e 22 23
e 23 25
e 24 29
e 26 28
e 26 29
e 27 30
e 28 29
